50, 11822
227, 268
963, 1053
127, 196
705, 706
86, 37
248, 178
1000, 1006
210, 212
642, 556
460, 541
454, 455
495, 535
193, 137
831, 780
90, 3
235, 203
20, 33
267, 252
408, 383
903, 970
380, 459
114, 49
259, 238
992, 925
64, 109
621, 716
378, 318
661, 715
339, 299
692, 594
498, 551
650, 618
902, 836
582, 569
143, 89
65, 68
947, 936
489, 473
194, 212
947, 905
579, 498
729, 646
881, 802
286, 290
357, 329
879, 941
135, 136
765, 807
98, 195
691, 603
